<number of tasks>
100

<cycle time>
1000

<order strength>
0.896


<task times>
1 182
2 524
3 175
4 156
5 456
6 459
7 58
8 256
9 144
10 145
11 281
12 91
13 41
14 90
15 432
16 135
17 40
18 279
19 350
20 106
21 23
22 25
23 123
24 28
25 122
26 502
27 174
28 102
29 126
30 80
31 114
32 187
33 191
34 146
35 93
36 392
37 223
38 56
39 223
40 315
41 114
42 429
43 182
44 400
45 145
46 75
47 308
48 299
49 358
50 322
51 174
52 129
53 275
54 199
55 138
56 43
57 481
58 161
59 161
60 159
61 342
62 207
63 200
64 381
65 194
66 191
67 332
68 103
69 213
70 551
71 125
72 139
73 79
74 284
75 193
76 339
77 246
78 90
79 79
80 284
81 294
82 186
83 30
84 490
85 233
86 625
87 173
88 119
89 218
90 125
91 492
92 191
93 172
94 80
95 132
96 216
97 175
98 469
99 264
100 152

<precedence relations>
1,4
1,5
2,4
2,5
3,4
3,5
4,6
4,7
5,6
5,7
6,8
6,9
6,10
6,11
6,12
7,8
7,9
7,10
7,11
7,12
8,13
8,14
8,15
9,13
9,14
9,15
10,13
10,14
10,15
11,13
11,14
11,15
12,13
12,14
13,16
13,17
14,16
14,17
15,16
15,17
16,18
16,19
16,20
17,18
17,19
17,21
18,23
18,24
18,25
19,22
19,23
19,24
19,25
20,22
20,23
20,24
20,25
21,22
21,23
21,24
21,25
22,26
22,27
22,28
23,26
23,27
23,28
24,26
24,27
24,28
25,26
25,27
25,28
26,29
26,30
26,32
27,29
27,30
27,31
27,32
28,29
28,30
28,31
28,32
29,33
30,33
30,34
30,35
30,36
31,33
31,34
31,36
32,33
32,34
32,35
33,37
33,38
33,39
33,40
33,41
33,42
34,37
34,38
34,39
34,40
34,41
34,42
35,37
36,37
36,42
37,43
37,44
38,43
38,44
38,45
39,43
39,46
40,43
40,46
40,50
41,43
41,44
41,45
41,46
42,45
42,54
43,47
43,48
43,49
43,51
44,47
44,48
44,49
44,50
44,51
45,47
45,48
45,55
46,47
46,49
47,59
47,65
48,52
48,56
48,59
48,61
49,52
49,53
49,54
49,56
50,54
50,55
50,58
51,56
51,60
51,61
52,62
53,57
53,58
53,61
54,59
54,69
54,76
55,57
55,60
56,57
56,58
57,62
57,63
57,64
57,65
57,66
58,68
59,88
60,65
60,66
61,62
61,63
61,66
62,67
62,68
63,67
63,68
64,67
64,68
65,67
65,68
66,77
66,78
67,69
67,70
67,71
68,69
68,70
68,71
69,74
69,75
70,72
70,74
70,90
71,73
71,79
72,76
72,89
72,96
73,88
73,89
74,78
74,82
74,89
74,91
75,77
75,78
76,93
77,79
77,80
77,81
79,82
80,83
81,84
83,85
84,85
85,86
85,87
86,91
86,94
87,88
87,89
87,90
88,92
89,93
91,96
92,94
92,95
92,96
94,97
94,100
95,97
95,99
96,98
96,99

<end>
